KPT-Resolved Value to Generate K-Mesh: 0.050
0
Monkhorst-Pack
   1   1   1
0.0  0.0  0.0
