 POSCAR file written by OVITO Basic 3.5.4
   1.000
   12.2562789090000006    0.0000000000000000    0.0000000000000000
    0.0000000000000000   12.2562789090000006    0.0000000000000000
    0.0000000000000000    0.0000000000000000   18.3844183635000000
   Se   Cd
   48   48
Cartesian
    4.5961045908999996    4.5961045908999996    4.5961045908999996    
    4.5961045908999996    1.5320348636000001    1.5320348636000001    
    1.5320348636000001    4.5961045908999996    1.5320348636000001    
    1.5320348636000001    1.5320348636000001    4.5961045908999996    
    4.5961045908999996    4.5961045908999996   10.7242440454000008    
    4.5961045908999996    1.5320348636000001    7.6601743181000002    
    1.5320348636000001    4.5961045908999996    7.6601743181000002    
    1.5320348636000001    1.5320348636000001   10.7242440454000008    
    4.5961045908999996    4.5961045908999996   16.8523834997999984    
    4.5961045908999996    1.5320348636000001   13.7883137726000005    
    1.5320348636000001    4.5961045908999996   13.7883137726000005    
    1.5320348636000001    1.5320348636000001   16.8523834997999984    
    4.5961045908999996   10.7242440453000007    4.5961045908999996    
    4.5961045908999996    7.6601743181000002    1.5320348636000001    
    1.5320348636000001   10.7242440453000007    1.5320348636000001    
    1.5320348636000001    7.6601743181000002    4.5961045908999996    
    4.5961045908999996   10.7242440453000007   10.7242440454000008    
    4.5961045908999996    7.6601743181000002    7.6601743181000002    
    1.5320348636000001   10.7242440453000007    7.6601743181000002    
    1.5320348636000001    7.6601743181000002   10.7242440454000008    
    4.5961045908999996   10.7242440453000007   16.8523834997999984    
    4.5961045908999996    7.6601743181000002   13.7883137726000005    
    1.5320348636000001   10.7242440453000007   13.7883137726000005    
    1.5320348636000001    7.6601743181000002   16.8523834997999984    
   10.7242440453000007    4.5961045908999996    4.5961045908999996    
   10.7242440453000007    1.5320348636000001    1.5320348636000001    
    7.6601743181000002    4.5961045908999996    1.5320348636000001    
    7.6601743181000002    1.5320348636000001    4.5961045908999996    
   10.7242440453000007    4.5961045908999996   10.7242440454000008    
   10.7242440453000007    1.5320348636000001    7.6601743181000002    
    7.6601743181000002    4.5961045908999996    7.6601743181000002    
    7.6601743181000002    1.5320348636000001   10.7242440454000008    
   10.7242440453000007    4.5961045908999996   16.8523834997999984    
   10.7242440453000007    1.5320348636000001   13.7883137726000005    
    7.6601743181000002    4.5961045908999996   13.7883137726000005    
    7.6601743181000002    1.5320348636000001   16.8523834997999984    
   10.7242440453000007   10.7242440453000007    4.5961045908999996    
   10.7242440453000007    7.6601743181000002    1.5320348636000001    
    7.6601743181000002   10.7242440453000007    1.5320348636000001    
    7.6601743181000002    7.6601743181000002    4.5961045908999996    
   10.7242440453000007   10.7242440453000007   10.7242440454000008    
   10.7242440453000007    7.6601743181000002    7.6601743181000002    
    7.6601743181000002   10.7242440453000007    7.6601743181000002    
    7.6601743181000002    7.6601743181000002   10.7242440454000008    
   10.7242440453000007   10.7242440453000007   16.8523834997999984    
   10.7242440453000007    7.6601743181000002   13.7883137726000005    
    7.6601743181000002   10.7242440453000007   13.7883137726000005    
    7.6601743181000002    7.6601743181000002   16.8523834997999984    
    3.0640697272000001    3.0640697272000001    3.0640697273000002    
    3.0640697272000001    0.0000000000000000    0.0000000000000000    
    0.0000000000000000    3.0640697272000001    0.0000000000000000    
    0.0000000000000000    0.0000000000000000    3.0640697273000002    
    3.0640697272000001    3.0640697272000001    9.1922091816999991    
    3.0640697272000001    0.0000000000000000    6.1281394545000003    
    0.0000000000000000    3.0640697272000001    6.1281394545000003    
    0.0000000000000000    0.0000000000000000    9.1922091816999991    
    3.0640697272000001    3.0640697272000001   15.3203486362000003    
    3.0640697272000001    0.0000000000000000   12.2562789090000006    
    0.0000000000000000    3.0640697272000001   12.2562789090000006    
    0.0000000000000000    0.0000000000000000   15.3203486362000003    
    3.0640697272000001    9.1922091816999991    3.0640697273000002    
    3.0640697272000001    6.1281394545000003    0.0000000000000000    
    0.0000000000000000    9.1922091816999991    0.0000000000000000    
    0.0000000000000000    6.1281394545000003    3.0640697273000002    
    3.0640697272000001    9.1922091816999991    9.1922091816999991    
    3.0640697272000001    6.1281394545000003    6.1281394545000003    
    0.0000000000000000    9.1922091816999991    6.1281394545000003    
    0.0000000000000000    6.1281394545000003    9.1922091816999991    
    3.0640697272000001    9.1922091816999991   15.3203486362000003    
    3.0640697272000001    6.1281394545000003   12.2562789090000006    
    0.0000000000000000    9.1922091816999991   12.2562789090000006    
    0.0000000000000000    6.1281394545000003   15.3203486362000003    
    9.1922091816999991    3.0640697272000001    3.0640697273000002    
    9.1922091816999991    0.0000000000000000    0.0000000000000000    
    6.1281394545000003    3.0640697272000001    0.0000000000000000    
    6.1281394545000003    0.0000000000000000    3.0640697273000002    
    9.1922091816999991    3.0640697272000001    9.1922091816999991    
    9.1922091816999991    0.0000000000000000    6.1281394545000003    
    6.1281394545000003    3.0640697272000001    6.1281394545000003    
    6.1281394545000003    0.0000000000000000    9.1922091816999991    
    9.1922091816999991    3.0640697272000001   15.3203486362000003    
    9.1922091816999991    0.0000000000000000   12.2562789090000006    
    6.1281394545000003    3.0640697272000001   12.2562789090000006    
    6.1281394545000003    0.0000000000000000   15.3203486362000003    
    9.1922091816999991    9.1922091816999991    3.0640697273000002    
    9.1922091816999991    6.1281394545000003    0.0000000000000000    
    6.1281394545000003    9.1922091816999991    0.0000000000000000    
    6.1281394545000003    6.1281394545000003    3.0640697273000002    
    9.1922091816999991    9.1922091816999991    9.1922091816999991    
    9.1922091816999991    6.1281394545000003    6.1281394545000003    
    6.1281394545000003    9.1922091816999991    6.1281394545000003    
    6.1281394545000003    6.1281394545000003    9.1922091816999991    
    9.1922091816999991    9.1922091816999991   15.3203486362000003    
    9.1922091816999991    6.1281394545000003   12.2562789090000006    
    6.1281394545000003    9.1922091816999991   12.2562789090000006    
    6.1281394545000003    6.1281394545000003   15.3203486362000003    
