SYSTEM = cdse
ISTART = 0
PREC = Accurate
ENCUT = 600
EDIFF = 1e-5
EDIFFG = 1e-4
ISMEAR = -1
SIGMA = 0.05
LWAVE = .F.
LCHARGE = .F.
IBRION = -1
POTIM = 0.02
ISIF = 2
NSW = 0
LREAL = A
ALGO = normal
METAGGA = SCAN
LASPH = .T.


