KPT-Resolved Value to Generate K-Mesh: 0.050
0
Monkhorst-Pack
   2   2   2
0.0  0.0  0.0
